gen	cost
1	20528
2	20348
3	20100
4	20021
5	19946
6	19755
7	19754
8	19563
9	19538
10	19504
11	19485
12	19485
13	19439
14	19423
15	19322
16	19248
17	19176
18	19127
19	18997
20	18947
21	18869
22	18822
23	18751
24	18704
25	18642
26	18587
27	18521
28	18521
29	18521
30	18458
31	18432
32	18304
33	18302
34	18196
35	18070
36	18033
37	17962
38	17962
39	17908
40	17826
41	17764
42	17670
43	17665
44	17600
45	17552
46	17538
47	17505
48	17458
49	17386
50	17379

